(declare-const a Real)
(declare-const b Real)
(declare-const c Real)
(assert (= (* a b c) 1))
(assert (> a 0))
(assert (> b 0))
(assert (> c 0))
(assert (not (<= (+ (/ 3 2) (* (pow (pow b (/ 4 3)) (* (pow c (/ 4 3)) (pow (+ (* b (pow a (/ 5 3))) (* c (pow a (/ 5 3)))) -1) (pow (+ (* (pow c (/ 4 3)) (pow (+ (* b (pow a (/ 5 3))) (* c (pow a (/ 5 3)))) -1)) (* 2 (pow a (/ 4 3)) (pow b (/ -1 6)) (pow c (/ -1 6)) (pow (+ a b) (/ -1 2)) (pow (+ a c) (/ -1 2)))) -1))) (+ (* -1 (pow c (/ 4 3)) (pow (+ (* b (pow a (/ 5 3))) (* c (pow a (/ 5 3)))) -1)) (* -2 (pow a (/ 4 3)) (pow (* b c) (/ -1 6)) (pow (* (+ a b) (+ a c)) (/ -1 2)))))) 0)))
(check-sat)
(get-model)
(exit)